21
100 1 1 1 1 1 1 1 1 1 1 1 1 1 1 1 1 1 1 1 1
20
56 1 0 0 0 0 0 0 0 0 0 0 0 0 0 0 0 0 0 0 0 56
61 0 1 0 0 0 0 0 0 0 0 0 0 0 0 0 0 0 0 0 0 93
86 0 0 1 0 0 0 0 0 0 0 0 0 0 0 0 0 0 0 0 0 92
49 0 0 0 1 0 0 0 0 0 0 0 0 0 0 0 0 0 0 0 0 99
93 0 0 0 0 1 0 0 0 0 0 0 0 0 0 0 0 0 0 0 0 80
88 0 0 0 0 0 1 0 0 0 0 0 0 0 0 0 0 0 0 0 0 81
78 0 0 0 0 0 0 1 0 0 0 0 0 0 0 0 0 0 0 0 0 70
87 0 0 0 0 0 0 0 1 0 0 0 0 0 0 0 0 0 0 0 0 42
41 0 0 0 0 0 0 0 0 1 0 0 0 0 0 0 0 0 0 0 0 15
76 0 0 0 0 0 0 0 0 0 1 0 0 0 0 0 0 0 0 0 0 81
32 0 0 0 0 0 0 0 0 0 0 1 0 0 0 0 0 0 0 0 0 11
75 0 0 0 0 0 0 0 0 0 0 0 1 0 0 0 0 0 0 0 0 98
50 0 0 0 0 0 0 0 0 0 0 0 0 1 0 0 0 0 0 0 0 60
27 0 0 0 0 0 0 0 0 0 0 0 0 0 1 0 0 0 0 0 0 43
97 0 0 0 0 0 0 0 0 0 0 0 0 0 0 1 0 0 0 0 0 63
81 0 0 0 0 0 0 0 0 0 0 0 0 0 0 0 1 0 0 0 0 65
22 0 0 0 0 0 0 0 0 0 0 0 0 0 0 0 0 1 0 0 0 78
88 0 0 0 0 0 0 0 0 0 0 0 0 0 0 0 0 0 1 0 0 65
74 0 0 0 0 0 0 0 0 0 0 0 0 0 0 0 0 0 0 1 0 76
99 0 0 0 0 0 0 0 0 0 0 0 0 0 0 0 0 0 0 0 1 95
